
Gurobi 11.0.3 (linux64) logging started Fri Nov 22 23:05:14 2024

Set parameter LogFile to value "/home/yihong/Coding/OR_SUC/SUC_results_bigM100000_thread4/case24_ieee_rts_theta0.1_epsilon0.025_gurobi_seed1190000_num_gen100_N_WDR100_load_scaling_factor1_proposed_T20quadra_cost.txt"
Set parameter TimeLimit to value 3600
Gurobi Optimizer version 11.0.3 build v11.0.3rc0 (linux64 - "Ubuntu 20.04.6 LTS")

CPU model: AMD EPYC 7532 32-Core Processor, instruction set [SSE2|AVX|AVX2]
Thread count: 64 physical cores, 128 logical processors, using up to 4 threads

Optimize a model with 43202 rows, 24901 columns and 590362 nonzeros
Model fingerprint: 0x06a424cd
Model has 2000 quadratic constraints
Variable types: 22901 continuous, 2000 integer (2000 binary)
Coefficient statistics:
  Matrix range     [3e-04, 2e+03]
  QMatrix range    [2e-03, 8e-03]
  QLMatrix range   [6e-01, 6e+01]
  Objective range  [1e+00, 1e+00]
  Bounds range     [1e+00, 1e+00]
  RHS range        [1e+00, 9e+03]
Presolve removed 35068 rows and 10817 columns
Presolve time: 0.20s
Presolved: 8134 rows, 14084 columns, 50276 nonzeros
Presolved model has 2000 quadratic constraint(s)
Variable types: 12084 continuous, 2000 integer (2000 binary)

Root relaxation: objective 3.181478e+04, 6309 iterations, 0.15 seconds (0.21 work units)

    Nodes    |    Current Node    |     Objective Bounds      |     Work
 Expl Unexpl |  Obj  Depth IntInf | Incumbent    BestBd   Gap | It/Node Time

     0     0 31814.7764    0   40          - 31814.7764      -     -    0s
     0     0 251945.092    0  607          - 251945.092      -     -    0s
     0     0 251953.510    0  607          - 251953.510      -     -    0s
     0     0 489239.921    0  497          - 489239.921      -     -    1s
     0     0 489262.071    0  365          - 489262.071      -     -    1s
     0     0 489549.369    0  246          - 489549.369      -     -    1s
     0     0 489552.262    0  266          - 489552.262      -     -    1s
     0     0 489554.776    0  266          - 489554.776      -     -    1s
     0     2 489554.776    0  266          - 489554.776      -     -    2s
H  386   292                    489837.68407 489559.760  0.06%  46.2    3s
*  386   292             131    489837.68407 489559.760  0.06%  46.2    3s

Cutting planes:
  Gomory: 3
  Implied bound: 294
  MIR: 70
  Flow cover: 155

Explored 400 nodes (36449 simplex iterations) in 4.24 seconds (5.51 work units)
Thread count was 4 (of 128 available processors)

Solution count 2: 489838 489838 

Optimal solution found (tolerance 1.00e-03)
Warning: max constraint violation (2.8776e-07) exceeds tolerance
Best objective 4.898376840675e+05, best bound 4.895597604170e+05, gap 0.0567%
